%BLOCK LATTICE_CART
       8.197592965125523      -4.732882505122200       0.000000000000000
       0.000000000000000       9.465765010244407       0.000000000000000
       0.000000000000000       0.000000000000000       9.999213039980999
%ENDBLOCK LATTICE_CART

%BLOCK POSITIONS_FRAC
  C   0.1512068702671457   0.1512068702671457   0.5000000000000000
  C   0.2992664362582060   0.2992664362582059   0.5000000000000000
  C   0.4290579636798681   0.4290579636798681   0.5000000000000000
  C   0.8487931297328543  -0.0000000000000000   0.5000000000000000
  C   0.7007335637417935  -0.0000000000000002   0.5000000000000000
  C   0.5709420363201319  -0.0000000000000001   0.5000000000000000
  C  -0.0000000000000000   0.8487931297328544   0.5000000000000000
  C  -0.0000000000000000   0.7007335637417946   0.5000000000000000
  C   0.0000000000000000   0.5709420363201326   0.5000000000000000
  C   0.8487931297328544   0.8487931297328547   0.5000000000000000
  C   0.7007335637417941   0.7007335637417942   0.5000000000000000
  C   0.5709420363201317   0.5709420363201320   0.5000000000000000
  C   0.1512068702671457  -0.0000000000000000   0.5000000000000000
  C   0.2992664362582058  -0.0000000000000001   0.5000000000000000
  C   0.4290579636798680  -0.0000000000000002   0.5000000000000000
  C   0.0000000000000000   0.1512068702671457   0.5000000000000000
  C   0.0000000000000000   0.2992664362582059   0.5000000000000000
  C  -0.0000000000000000   0.4290579636798683   0.5000000000000000
 Fe   0.7884826629751328   0.2108367782413917   0.4998103053806368 SPIN=  4.0000000000
%ENDBLOCK POSITIONS_FRAC

%BLOCK KPOINTS_LIST
   0.3333333333333333   0.3333333333333333   0.3333333333333333       0.074074074074074
   0.3333333333333333   0.3333333333333333   0.0000000000000000       0.074074074074074
   0.3333333333333333   0.3333333333333333  -0.3333333333333333       0.074074074074074
   0.3333333333333333   0.0000000000000000   0.3333333333333333       0.074074074074074
   0.3333333333333333   0.0000000000000000   0.0000000000000000       0.074074074074074
   0.3333333333333333   0.0000000000000000  -0.3333333333333333       0.074074074074074
   0.3333333333333333  -0.3333333333333333   0.3333333333333333       0.074074074074074
   0.3333333333333333  -0.3333333333333333   0.0000000000000000       0.074074074074074
   0.3333333333333333  -0.3333333333333333  -0.3333333333333333       0.074074074074074
   0.0000000000000000   0.3333333333333333   0.3333333333333333       0.074074074074074
   0.0000000000000000   0.3333333333333333   0.0000000000000000       0.074074074074074
   0.0000000000000000   0.3333333333333333  -0.3333333333333333       0.074074074074074
   0.0000000000000000   0.0000000000000000   0.3333333333333333       0.074074074074074
   0.0000000000000000   0.0000000000000000   0.0000000000000000       0.037037037037037
%ENDBLOCK KPOINTS_LIST

%BLOCK CELL_CONSTRAINTS
       1       2       3
       4       5       6
%ENDBLOCK CELL_CONSTRAINTS

FIX_COM : false
%BLOCK IONIC_CONSTRAINTS
%ENDBLOCK IONIC_CONSTRAINTS

%BLOCK EXTERNAL_EFIELD
    0.0000000000     0.0000000000     0.0000000000 
%ENDBLOCK EXTERNAL_EFIELD

%BLOCK SPECIES_MASS
       C     12.0109996796
      Fe     55.8470001221
%ENDBLOCK SPECIES_MASS

%BLOCK SPECIES_POT
       C  C_00PBE.usp
      Fe  Fe_00PBE.uspcc
%ENDBLOCK SPECIES_POT

%BLOCK SPECIES_LCAO_STATES
       C         2
      Fe         3
%ENDBLOCK SPECIES_LCAO_STATES

%BLOCK HUBBARD_U
      Fe       1       d: 0.500000000000000
%ENDBLOCK HUBBARD_U

QUANTIZATION_AXIS :    0.0000    0.0000    1.0000
